0 634980 
1 634058 
2 633920 
3 630790 
4 630324 
5 629428 
6 627940 
7 627892 
8 625582 
9 623272 
10 622558 
11 621360 
12 620750 
13 620614 
14 618936 
15 618616 
16 617744 
17 617542 
18 617208 
19 616590 
20 615808 
21 610526 
22 608708 
23 607354 
24 607290 
25 605784 
26 605014 
27 603052 
28 598728 
29 597554 
30 593074 
31 591200 
32 588334 
33 584976 
34 584574 
35 581716 
36 579686 
37 578408 
38 578100 
39 575666 
40 575564 
41 574758 
42 574362 
43 570202 
44 567376 
45 566570 
46 565388 
47 564092 
48 560430 
49 559216 
50 557970 
51 555480 
52 553410 
53 550502 
54 550172 
55 541402 
56 541186 
57 536702 
58 534618 
59 534296 
60 534024 
61 531896 
62 526184 
63 525190 
64 522962 
65 522606 
66 520898 
67 519514 
68 516362 
69 516338 
70 514574 
71 507644 
72 507644 

